15 3 
4166	4166	4166	
511	405	445	
680	625	646	
762	765	831	
781	381	386	
431	267	268	
385	828	903	
650	655	696	
162	630	649	
666	865	872	
344	908	991	
544	687	751	
725	718	771	
867	188	193	
402	341	345	
973	70	70	
